%%% static parameters %%%
timespan = 1;
Fact = [4];
Distr1 = [15];
Distr2 = [30];
Clients_N = [1000];
Demand_W = [15];
Lt0 = [4];
Lt1 = [4];
SS_ = [0.85];
DS_D = [8];
K = [200];
MA = [500];
%%% dynamic parameters %%%
lost_ratio_sales_ret_th = 0.24828927261377087;
lost_ratio_sales_ret_w = 39;
lost_ratio_sales_dis_th = 0.6996604238171203;
lost_ratio_sales_dis_w = 51;
lost_ratio_sales_fac_th = 0.4966468121090484;
lost_ratio_sales_fac_w = 5;
stock_customer_MA_mean_relative_th = 0.24477229370629794;
stock_customer_MA_mean_relative_w = 95;
stock_distributor_MA_mean_relative_th = 0.31225681704545427;
stock_distributor_MA_mean_relative_w = 67;
stock_retailer_MA_mean_relative_th = 0.07280608365490604;
stock_retailer_MA_mean_relative_w = 83;
stock_factory_MA_mean_relative_th = 0.47546706921945514;
stock_factory_MA_mean_relative_w = 33;
